s td 36 13 48
b 1 1 2 4 7 11 13 15 24 29 30 33 34 45
b 2 1 4 7 11 13 15 23 24 29 30 33 34 45
b 3 1 4 7 8 11 13 15 23 29 30 33 34 45
b 4 1 7 8 11 13 15 23 29 30 33 45 47
b 5 1 7 8 13 15 23 29 30 33 37 45 47
b 6 1 7 13 15 23 30 33 37 40 45 47
b 7 1 3 33 40 47
b 8 6 7 13 15 30 37 40 45 47
b 9 5 6 37 40 47
b 10 6 7 10 13 40
b 11 6 15 30 31 37
b 12 6 7 15 43 45
b 13 1 13 22 23 40
b 14 8 17 29 37 47
b 15 8 21 23 30 37
b 16 11 28 29 33 47
b 17 4 8 9 29 34
b 18 1 8 16 23 34
b 19 13 23 24 30 46
b 20 1 2 4 7 11 13 15 19 24 30 33 34 45
b 21 1 2 4 7 11 13 19 24 25 33 34 45
b 22 2 4 7 11 13 19 24 25 33 34 45 48
b 23 2 7 11 13 19 24 25 27 33 45 48
b 24 2 7 11 25 27 33 44 45 48
b 25 12 25 27 44 48
b 26 2 11 26 44 45
b 27 11 25 33 36 44
b 28 7 27 41 44 45
b 29 18 19 24 27 48
b 30 7 13 24 27 38
b 31 2 4 14 19 48
b 32 4 25 32 34 48
b 33 1 20 25 33 34
b 34 2 15 19 35 45
b 35 15 19 24 30 42
b 36 2 4 11 29 39
1 2
1 20
1 36
2 3
2 19
3 4
3 17
3 18
4 5
4 16
5 6
5 14
5 15
6 7
6 8
6 13
8 9
8 10
8 11
8 12
20 21
20 34
20 35
21 22
21 33
22 23
22 31
22 32
23 24
23 29
23 30
24 25
24 26
24 27
24 28
